%%% static parameters %%%
timespan = 1;
Fact = [4];
Distr1 = [15];
Distr2 = [30];
Clients_N = [300];
Demand_W = [15];
Lt0 = [4];
Lt1 = [4];
SS_ = [0.85];
DS_D = [8];
K = [200];
MA = [500];
%%% dynamic parameters %%%
lost_ratio_sales_ret_th = 0.4853458698776536;
lost_ratio_sales_ret_w = 28;
lost_ratio_sales_dis_th = 0.49294187696374037;
lost_ratio_sales_dis_w = 2;
lost_ratio_sales_fac_th = 0.8501902547245295;
lost_ratio_sales_fac_w = 82;
stock_customer_MA_mean_relative_th = 0.4428148183046926;
stock_customer_MA_mean_relative_w = 89;
stock_distributor_MA_mean_relative_th = 0.780584334828173;
stock_distributor_MA_mean_relative_w = 65;
stock_retailer_MA_mean_relative_th = 0.19457977129407678;
stock_retailer_MA_mean_relative_w = 54;
stock_factory_MA_mean_relative_th = 0.12534794734657362;
stock_factory_MA_mean_relative_w = 60;
